c Standarized MaxSat Instance
c{
c "sha1sum": "49b6661b7229ba4d121ba7f9f980f9bfe586a179",
c "nvars": 42,
c "ncls": 48,
c "nhards": 0,
c "nhard_len_stats":
c    { "min": 0, "max": 0, "ave": 0.00,
c      "stddev": 0.00 },
c "nsofts": 48,
c "nsoft_len_stats":
c    { "min": 2, "max": 2, "ave": 2.00,
c      "stddev": 0.00 },
c "nsoft_wts": 10,
c "soft_wt_stats":
c    { "min": 1, "max": 10, "ave": 5.96,
c      "stddev": 2.81 }
c}
c------------------------------------------------------------
c File:  c-fat500-1.clq
c
c Source: Panos Pardalos pardalos@math.ufl.edu
c
c Reference: P. Berman and A. Pelc, Distributed Fault Diagnosis for
c            Multiprocessor Systems, Proceedings of the 20th Annual
c            International Symposium on Fault-Tolerant Computing
c            Newcastle, UK, 340-346 (1990)
c
p wcnf 42 48 287
9 1 21 0
9 -1 -21 0
4 1 41 0
4 -1 -41 0
8 2 22 0
8 -2 -22 0
8 2 42 0
8 -2 -42 0
10 3 23 0
10 -3 -23 0
2 4 24 0
2 -4 -24 0
4 5 25 0
4 -5 -25 0
8 6 26 0
8 -6 -26 0
3 7 27 0
3 -7 -27 0
6 8 28 0
6 -8 -28 0
5 9 29 0
5 -9 -29 0
7 10 30 0
7 -10 -30 0
4 11 31 0
4 -11 -31 0
6 12 32 0
6 -12 -32 0
10 13 33 0
10 -13 -33 0
10 14 34 0
10 -14 -34 0
7 15 35 0
7 -15 -35 0
8 16 36 0
8 -16 -36 0
2 17 37 0
2 -17 -37 0
7 18 38 0
7 -18 -38 0
1 19 39 0
1 -19 -39 0
3 20 40 0
3 -20 -40 0
2 21 41 0
2 -21 -41 0
9 22 42 0
9 -22 -42 0
